
Gurobi 9.5.1 (linux64) logging started Thu 09 Jun 2022 01:01:14 PM MST

Set parameter LogFile to value "/home/local/ASUAD/kmajd1/NNRepLayer_v2/demos/walking_example/dynamic_constraint/repair_net/logs/opt_log_6_9_2022_13_0_9.log"
Gurobi Optimizer version 9.5.1 build v9.5.1rc2 (linux64)
Thread count: 48 physical cores, 96 logical processors, using up to 32 threads
Optimize a model with 72042 rows, 44527 columns and 205642 nonzeros
Model fingerprint: 0xc7d08857
Model has 271 quadratic objective terms
Variable types: 18607 continuous, 25920 integer (25920 binary)
Coefficient statistics:
  Matrix range     [7e-04, 5e+01]
  Objective range  [1e-02, 2e+00]
  QObjective range [7e-02, 2e+00]
  Bounds range     [1e+00, 5e+01]
  RHS range        [2e-04, 5e+01]
Presolve removed 44060 rows and 17440 columns
Presolve time: 0.74s
Presolved: 27982 rows, 27087 columns, 135342 nonzeros
Presolved model has 271 quadratic objective terms
Variable types: 18447 continuous, 8640 integer (8640 binary)
Root relaxation presolve removed 8640 rows and 8640 columns
Root relaxation presolved: 19342 rows, 18447 columns, 118062 nonzeros
Root relaxation presolved model has 271 quadratic objective terms


Root simplex log...

Iteration    Objective       Primal Inf.    Dual Inf.      Time
    5974    3.9090082e+01   2.508381e+03   0.000000e+00      5s
   21906    3.9090082e+01   0.000000e+00   0.000000e+00      8s
   21906    3.9090082e+01   0.000000e+00   0.000000e+00      8s

Root relaxation: objective 3.909008e+01, 21906 iterations, 4.13 seconds (8.23 work units)

    Nodes    |    Current Node    |     Objective Bounds      |     Work
 Expl Unexpl |  Obj  Depth IntInf | Incumbent    BestBd   Gap | It/Node Time

     0     0   39.09008    0 1584          -   39.09008      -     -    8s
     0     0   39.09008    0 1468          -   39.09008      -     -   30s
     0     0   39.09008    0 1197          -   39.09008      -     -   35s
     0     0   39.09008    0 1277          -   39.09008      -     -   36s
     0     0   39.09008    0 1241          -   39.09008      -     -   36s
     0     0   39.09008    0 1309          -   39.09008      -     -   40s
     0     0   39.09008    0 1289          -   39.09008      -     -   40s
     0     0   39.09008    0  839          -   39.09008      -     -   43s
     0     0   39.09008    0 1390          -   39.09008      -     -   62s

Cutting planes:
  Gomory: 5
  Implied bound: 16
  MIR: 765
  Flow cover: 1244
  Relax-and-lift: 1

Explored 1 nodes (156575 simplex iterations) in 62.54 seconds (151.96 work units)
Thread count was 32 (of 96 available processors)

Solution count 0

Solve interrupted
Best objective -, best bound 3.909008485127e+01, gap -
